data/solutions/planning/wellformed/moderate/sequential/wellformed_moderate_instance65_cplex.sol
Elapsed time: 30.15
Nodes explored: -
Nodes left: -
Relative gap: -
Upper bound: 259188.0
Lower bound: -
C[0]=8361.0
C[1]=8361.0
C[2]=8361.0
C[3]=8360.0
C[4]=8360.0
y[0]=1
y[1]=4
y[2]=4
y[3]=1
y[4]=4
y[5]=1
y[6]=2
y[7]=0
y[8]=1
y[9]=4
y[10]=2
y[11]=0
y[12]=3
y[13]=1
y[14]=4
y[15]=0
y[16]=0
y[17]=3
y[18]=1
y[19]=2
y[20]=3
y[21]=3
y[22]=4
y[23]=1
y[24]=0
y[25]=2
y[26]=0
y[27]=2
y[28]=0
y[29]=3
y[30]=3
y[31]=1
y[32]=2
y[33]=4
y[34]=3
y[35]=3
y[36]=2
y[37]=4
y[38]=2
y[39]=2
